graph_generation/data/cp/tcsp/hexagonal_lattice_N_15_task_along_shortest_path.dzn
nodes = 510;
edges = 1260;
starts = [1, 2, 3, 3, 4, 5, 5, 6, 7, 7, 8, 9, 10, 11, 12, 13, 13, 14, 15, 16, 17, 17, 18, 19, 19, 20, 21, 21, 22, 23, 23, 24, 25, 25, 26, 27, 28, 29, 29, 30, 32, 33, 33, 35, 35, 36, 37, 37, 38, 39, 40, 41, 41, 42, 43, 44, 45, 45, 46, 47, 47, 48, 49, 49, 50, 51, 52, 53, 54, 55, 56, 57, 57, 58, 59, 60, 61, 61, 62, 63, 64, 64, 65, 66, 67, 68, 68, 69, 70, 70, 72, 72, 73, 74, 74, 75, 76, 76, 77, 78, 78, 79, 80, 80, 81, 82, 83, 84, 84, 85, 86, 87, 88, 88, 89, 90, 90, 91, 92, 92, 94, 96, 97, 97, 98, 99, 99, 100, 101, 101, 102, 103, 103, 104, 105, 105, 106, 107, 108, 109, 110, 111, 112, 113, 113, 114, 115, 115, 116, 117, 117, 118, 119, 119, 121, 123, 123, 124, 125, 125, 126, 127, 128, 128, 130, 131, 132, 132, 133, 134, 134, 135, 136, 137, 138, 138, 139, 140, 140, 142, 142, 143, 144, 144, 146, 146, 147, 148, 148, 149, 150, 151, 152, 152, 153, 154, 154, 155, 156, 156, 157, 158, 158, 160, 162, 163, 164, 165, 165, 166, 167, 167, 168, 169, 170, 171, 171, 172, 174, 175, 176, 177, 178, 179, 179, 180, 181, 182, 183, 183, 185, 185, 186, 187, 187, 188, 189, 189, 190, 191, 192, 192, 193, 194, 194, 195, 196, 196, 197, 198, 198, 199, 200, 201, 202, 202, 203, 204, 204, 206, 206, 207, 208, 209, 210, 210, 211, 212, 213, 214, 215, 216, 216, 217, 218, 219, 220, 220, 222, 222, 224, 225, 225, 226, 227, 227, 228, 229, 229, 231, 231, 232, 233, 233, 235, 235, 236, 237, 239, 240, 241, 242, 243, 244, 245, 245, 246, 247, 247, 248, 249, 249, 250, 251, 251, 252, 253, 253, 254, 255, 256, 256, 257, 258, 260, 260, 261, 262, 262, 264, 264, 265, 266, 266, 267, 268, 268, 269, 270, 270, 271, 272, 272, 273, 274, 274, 275, 276, 276, 277, 278, 279, 280, 280, 281, 282, 283, 284, 284, 285, 286, 286, 288, 289, 289, 290, 291, 292, 293, 293, 294, 295, 295, 296, 297, 297, 298, 299, 300, 301, 301, 302, 303, 303, 304, 305, 305, 307, 307, 308, 309, 309, 310, 311, 311, 312, 313, 314, 315, 315, 316, 317, 317, 318, 319, 320, 320, 322, 322, 323, 324, 324, 325, 326, 326, 327, 328, 328, 329, 330, 331, 332, 332, 333, 334, 334, 335, 336, 336, 337, 338, 339, 340, 342, 342, 343, 344, 344, 345, 346, 346, 347, 348, 349, 350, 353, 353, 354, 355, 356, 357, 357, 359, 361, 361, 362, 363, 364, 365, 366, 367, 367, 369, 370, 371, 372, 373, 375, 375, 376, 377, 379, 379, 380, 381, 381, 382, 384, 384, 385, 386, 386, 387, 388, 388, 389, 390, 390, 391, 392, 392, 393, 394, 394, 395, 396, 397, 398, 398, 399, 400, 401, 402, 403, 404, 404, 405, 406, 408, 408, 409, 410, 410, 411, 412, 412, 413, 414, 414, 416, 417, 417, 418, 419, 419, 420, 421, 422, 423, 423, 424, 425, 425, 426, 427, 427, 428, 429, 430, 431, 431, 432, 433, 433, 434, 435, 435, 436, 437, 438, 439, 440, 441, 441, 442, 443, 444, 445, 446, 447, 448, 448, 449, 450, 450, 451, 452, 453, 454, 454, 455, 456, 456, 457, 458, 458, 459, 460, 460, 462, 462, 463, 464, 465, 466, 466, 467, 468, 468, 469, 470, 471, 472, 472, 474, 474, 475, 476, 476, 477, 478, 480, 481, 482, 483, 484, 485, 486, 487, 488, 489, 491, 492, 493, 494, 495, 496, 497, 498, 499, 500, 501, 502, 503, 504, 505, 506, 507, 508, 509, 32, 3, 4, 34, 5, 6, 36, 7, 8, 38, 9, 10, 11, 12, 13, 14, 44, 15, 46, 17, 18, 48, 19, 20, 50, 21, 22, 52, 23, 24, 54, 25, 26, 56, 27, 58, 29, 30, 60, 31, 33, 34, 65, 36, 67, 37, 38, 69, 39, 40, 41, 42, 73, 43, 44, 45, 46, 77, 47, 48, 79, 49, 50, 81, 51, 52, 53, 85, 55, 87, 57, 58, 89, 59, 60, 61, 62, 93, 63, 95, 65, 96, 66, 98, 68, 69, 100, 70, 71, 102, 73, 104, 74, 75, 106, 76, 77, 108, 78, 79, 110, 80, 81, 112, 82, 114, 84, 85, 116, 86, 87, 88, 89, 120, 90, 91, 122, 92, 93, 124, 126, 97, 98, 129, 99, 100, 131, 101, 102, 133, 103, 104, 135, 105, 106, 137, 107, 139, 109, 141, 111, 112, 113, 114, 145, 115, 116, 147, 117, 118, 149, 119, 120, 151, 153, 124, 155, 125, 126, 157, 127, 159, 129, 160, 162, 132, 133, 164, 134, 135, 166, 136, 137, 138, 139, 170, 140, 141, 172, 143, 174, 144, 145, 176, 147, 178, 148, 149, 180, 150, 182, 152, 153, 184, 154, 155, 186, 156, 157, 188, 158, 159, 190, 161, 163, 164, 165, 166, 197, 167, 168, 199, 169, 201, 171, 172, 203, 173, 175, 207, 177, 178, 179, 180, 211, 181, 213, 183, 184, 215, 186, 217, 187, 188, 219, 189, 190, 221, 191, 223, 193, 224, 194, 195, 226, 196, 197, 228, 198, 199, 230, 200, 201, 202, 203, 234, 204, 205, 236, 207, 238, 208, 209, 210, 211, 242, 212, 244, 214, 215, 216, 217, 248, 218, 250, 220, 221, 252, 223, 254, 225, 226, 257, 227, 228, 259, 229, 230, 261, 232, 263, 233, 234, 265, 236, 267, 237, 238, 240, 241, 242, 243, 244, 245, 246, 277, 247, 248, 279, 249, 250, 281, 251, 252, 283, 253, 254, 285, 255, 287, 257, 288, 258, 290, 261, 292, 262, 263, 294, 265, 296, 266, 267, 298, 268, 269, 300, 270, 271, 302, 272, 273, 304, 274, 275, 306, 276, 277, 308, 278, 279, 280, 281, 312, 282, 283, 284, 285, 316, 286, 287, 318, 289, 290, 321, 291, 323, 293, 294, 325, 295, 296, 327, 297, 298, 329, 299, 300, 301, 302, 333, 303, 304, 335, 305, 306, 337, 308, 339, 309, 310, 341, 311, 312, 343, 313, 314, 315, 316, 347, 317, 318, 349, 319, 351, 321, 352, 323, 354, 324, 325, 356, 326, 327, 358, 328, 329, 360, 330, 362, 332, 333, 364, 334, 335, 366, 336, 337, 368, 338, 370, 340, 341, 343, 374, 344, 345, 376, 346, 347, 378, 348, 349, 350, 382, 354, 385, 355, 356, 357, 358, 389, 360, 362, 393, 363, 364, 365, 366, 367, 368, 399, 370, 371, 403, 373, 374, 376, 407, 377, 378, 380, 411, 381, 382, 413, 383, 385, 416, 386, 387, 418, 388, 389, 420, 390, 391, 422, 392, 393, 424, 394, 395, 426, 396, 428, 398, 399, 430, 400, 432, 402, 403, 404, 405, 436, 406, 438, 409, 440, 410, 411, 442, 412, 413, 444, 414, 415, 446, 417, 418, 449, 419, 420, 451, 421, 422, 423, 424, 455, 425, 426, 457, 427, 428, 459, 429, 461, 431, 432, 463, 433, 434, 465, 435, 436, 467, 437, 438, 439, 440, 441, 442, 473, 443, 475, 445, 477, 447, 479, 449, 480, 450, 451, 482, 452, 484, 454, 455, 486, 456, 457, 488, 458, 459, 490, 460, 461, 492, 463, 494, 464, 465, 466, 467, 498, 468, 469, 500, 470, 502, 472, 473, 504, 475, 506, 476, 477, 508, 478, 510, 481, 482, 483, 484, 485, 486, 487, 488, 489, 490, 492, 493, 494, 495, 496, 497, 498, 499, 500, 501, 502, 503, 504, 505, 506, 507, 508, 509, 510];
ends = [32, 3, 4, 34, 5, 6, 36, 7, 8, 38, 9, 10, 11, 12, 13, 14, 44, 15, 46, 17, 18, 48, 19, 20, 50, 21, 22, 52, 23, 24, 54, 25, 26, 56, 27, 58, 29, 30, 60, 31, 33, 34, 65, 36, 67, 37, 38, 69, 39, 40, 41, 42, 73, 43, 44, 45, 46, 77, 47, 48, 79, 49, 50, 81, 51, 52, 53, 85, 55, 87, 57, 58, 89, 59, 60, 61, 62, 93, 63, 95, 65, 96, 66, 98, 68, 69, 100, 70, 71, 102, 73, 104, 74, 75, 106, 76, 77, 108, 78, 79, 110, 80, 81, 112, 82, 114, 84, 85, 116, 86, 87, 88, 89, 120, 90, 91, 122, 92, 93, 124, 126, 97, 98, 129, 99, 100, 131, 101, 102, 133, 103, 104, 135, 105, 106, 137, 107, 139, 109, 141, 111, 112, 113, 114, 145, 115, 116, 147, 117, 118, 149, 119, 120, 151, 153, 124, 155, 125, 126, 157, 127, 159, 129, 160, 162, 132, 133, 164, 134, 135, 166, 136, 137, 138, 139, 170, 140, 141, 172, 143, 174, 144, 145, 176, 147, 178, 148, 149, 180, 150, 182, 152, 153, 184, 154, 155, 186, 156, 157, 188, 158, 159, 190, 161, 163, 164, 165, 166, 197, 167, 168, 199, 169, 201, 171, 172, 203, 173, 175, 207, 177, 178, 179, 180, 211, 181, 213, 183, 184, 215, 186, 217, 187, 188, 219, 189, 190, 221, 191, 223, 193, 224, 194, 195, 226, 196, 197, 228, 198, 199, 230, 200, 201, 202, 203, 234, 204, 205, 236, 207, 238, 208, 209, 210, 211, 242, 212, 244, 214, 215, 216, 217, 248, 218, 250, 220, 221, 252, 223, 254, 225, 226, 257, 227, 228, 259, 229, 230, 261, 232, 263, 233, 234, 265, 236, 267, 237, 238, 240, 241, 242, 243, 244, 245, 246, 277, 247, 248, 279, 249, 250, 281, 251, 252, 283, 253, 254, 285, 255, 287, 257, 288, 258, 290, 261, 292, 262, 263, 294, 265, 296, 266, 267, 298, 268, 269, 300, 270, 271, 302, 272, 273, 304, 274, 275, 306, 276, 277, 308, 278, 279, 280, 281, 312, 282, 283, 284, 285, 316, 286, 287, 318, 289, 290, 321, 291, 323, 293, 294, 325, 295, 296, 327, 297, 298, 329, 299, 300, 301, 302, 333, 303, 304, 335, 305, 306, 337, 308, 339, 309, 310, 341, 311, 312, 343, 313, 314, 315, 316, 347, 317, 318, 349, 319, 351, 321, 352, 323, 354, 324, 325, 356, 326, 327, 358, 328, 329, 360, 330, 362, 332, 333, 364, 334, 335, 366, 336, 337, 368, 338, 370, 340, 341, 343, 374, 344, 345, 376, 346, 347, 378, 348, 349, 350, 382, 354, 385, 355, 356, 357, 358, 389, 360, 362, 393, 363, 364, 365, 366, 367, 368, 399, 370, 371, 403, 373, 374, 376, 407, 377, 378, 380, 411, 381, 382, 413, 383, 385, 416, 386, 387, 418, 388, 389, 420, 390, 391, 422, 392, 393, 424, 394, 395, 426, 396, 428, 398, 399, 430, 400, 432, 402, 403, 404, 405, 436, 406, 438, 409, 440, 410, 411, 442, 412, 413, 444, 414, 415, 446, 417, 418, 449, 419, 420, 451, 421, 422, 423, 424, 455, 425, 426, 457, 427, 428, 459, 429, 461, 431, 432, 463, 433, 434, 465, 435, 436, 467, 437, 438, 439, 440, 441, 442, 473, 443, 475, 445, 477, 447, 479, 449, 480, 450, 451, 482, 452, 484, 454, 455, 486, 456, 457, 488, 458, 459, 490, 460, 461, 492, 463, 494, 464, 465, 466, 467, 498, 468, 469, 500, 470, 502, 472, 473, 504, 475, 506, 476, 477, 508, 478, 510, 481, 482, 483, 484, 485, 486, 487, 488, 489, 490, 492, 493, 494, 495, 496, 497, 498, 499, 500, 501, 502, 503, 504, 505, 506, 507, 508, 509, 510, 1, 2, 3, 3, 4, 5, 5, 6, 7, 7, 8, 9, 10, 11, 12, 13, 13, 14, 15, 16, 17, 17, 18, 19, 19, 20, 21, 21, 22, 23, 23, 24, 25, 25, 26, 27, 28, 29, 29, 30, 32, 33, 33, 35, 35, 36, 37, 37, 38, 39, 40, 41, 41, 42, 43, 44, 45, 45, 46, 47, 47, 48, 49, 49, 50, 51, 52, 53, 54, 55, 56, 57, 57, 58, 59, 60, 61, 61, 62, 63, 64, 64, 65, 66, 67, 68, 68, 69, 70, 70, 72, 72, 73, 74, 74, 75, 76, 76, 77, 78, 78, 79, 80, 80, 81, 82, 83, 84, 84, 85, 86, 87, 88, 88, 89, 90, 90, 91, 92, 92, 94, 96, 97, 97, 98, 99, 99, 100, 101, 101, 102, 103, 103, 104, 105, 105, 106, 107, 108, 109, 110, 111, 112, 113, 113, 114, 115, 115, 116, 117, 117, 118, 119, 119, 121, 123, 123, 124, 125, 125, 126, 127, 128, 128, 130, 131, 132, 132, 133, 134, 134, 135, 136, 137, 138, 138, 139, 140, 140, 142, 142, 143, 144, 144, 146, 146, 147, 148, 148, 149, 150, 151, 152, 152, 153, 154, 154, 155, 156, 156, 157, 158, 158, 160, 162, 163, 164, 165, 165, 166, 167, 167, 168, 169, 170, 171, 171, 172, 174, 175, 176, 177, 178, 179, 179, 180, 181, 182, 183, 183, 185, 185, 186, 187, 187, 188, 189, 189, 190, 191, 192, 192, 193, 194, 194, 195, 196, 196, 197, 198, 198, 199, 200, 201, 202, 202, 203, 204, 204, 206, 206, 207, 208, 209, 210, 210, 211, 212, 213, 214, 215, 216, 216, 217, 218, 219, 220, 220, 222, 222, 224, 225, 225, 226, 227, 227, 228, 229, 229, 231, 231, 232, 233, 233, 235, 235, 236, 237, 239, 240, 241, 242, 243, 244, 245, 245, 246, 247, 247, 248, 249, 249, 250, 251, 251, 252, 253, 253, 254, 255, 256, 256, 257, 258, 260, 260, 261, 262, 262, 264, 264, 265, 266, 266, 267, 268, 268, 269, 270, 270, 271, 272, 272, 273, 274, 274, 275, 276, 276, 277, 278, 279, 280, 280, 281, 282, 283, 284, 284, 285, 286, 286, 288, 289, 289, 290, 291, 292, 293, 293, 294, 295, 295, 296, 297, 297, 298, 299, 300, 301, 301, 302, 303, 303, 304, 305, 305, 307, 307, 308, 309, 309, 310, 311, 311, 312, 313, 314, 315, 315, 316, 317, 317, 318, 319, 320, 320, 322, 322, 323, 324, 324, 325, 326, 326, 327, 328, 328, 329, 330, 331, 332, 332, 333, 334, 334, 335, 336, 336, 337, 338, 339, 340, 342, 342, 343, 344, 344, 345, 346, 346, 347, 348, 349, 350, 353, 353, 354, 355, 356, 357, 357, 359, 361, 361, 362, 363, 364, 365, 366, 367, 367, 369, 370, 371, 372, 373, 375, 375, 376, 377, 379, 379, 380, 381, 381, 382, 384, 384, 385, 386, 386, 387, 388, 388, 389, 390, 390, 391, 392, 392, 393, 394, 394, 395, 396, 397, 398, 398, 399, 400, 401, 402, 403, 404, 404, 405, 406, 408, 408, 409, 410, 410, 411, 412, 412, 413, 414, 414, 416, 417, 417, 418, 419, 419, 420, 421, 422, 423, 423, 424, 425, 425, 426, 427, 427, 428, 429, 430, 431, 431, 432, 433, 433, 434, 435, 435, 436, 437, 438, 439, 440, 441, 441, 442, 443, 444, 445, 446, 447, 448, 448, 449, 450, 450, 451, 452, 453, 454, 454, 455, 456, 456, 457, 458, 458, 459, 460, 460, 462, 462, 463, 464, 465, 466, 466, 467, 468, 468, 469, 470, 471, 472, 472, 474, 474, 475, 476, 476, 477, 478, 480, 481, 482, 483, 484, 485, 486, 487, 488, 489, 491, 492, 493, 494, 495, 496, 497, 498, 499, 500, 501, 502, 503, 504, 505, 506, 507, 508, 509];
weights = [10, 6, 18, 3, 7, 9, 15, 19, 11, 19, 13, 17, 11, 13, 18, 4, 4, 7, 5, 4, 19, 12, 7, 16, 9, 7, 15, 15, 9, 16, 9, 11, 8, 9, 3, 4, 10, 9, 15, 5, 9, 8, 10, 17, 5, 10, 9, 7, 13, 7, 11, 8, 16, 11, 7, 1, 16, 16, 10, 10, 15, 15, 18, 5, 18, 18, 5, 9, 16, 9, 7, 8, 12, 1, 9, 1, 16, 10, 16, 2, 8, 6, 3, 19, 13, 6, 19, 19, 14, 1, 12, 15, 18, 17, 11, 18, 9, 6, 18, 1, 12, 11, 10, 5, 12, 15, 14, 18, 11, 8, 1, 7, 1, 19, 6, 16, 6, 16, 14, 3, 14, 11, 13, 2, 11, 17, 16, 10, 16, 19, 2, 18, 14, 15, 1, 13, 7, 17, 11, 17, 3, 15, 5, 7, 14, 15, 7, 1, 15, 8, 12, 15, 2, 7, 12, 12, 11, 17, 12, 1, 15, 14, 16, 14, 9, 15, 15, 17, 4, 16, 15, 5, 4, 8, 4, 10, 8, 16, 5, 6, 19, 8, 12, 9, 1, 6, 3, 12, 14, 9, 13, 17, 6, 19, 4, 15, 18, 2, 18, 10, 5, 11, 13, 7, 12, 18, 1, 15, 14, 4, 4, 8, 8, 10, 6, 16, 4, 18, 3, 4, 15, 17, 11, 5, 13, 14, 3, 10, 12, 11, 9, 16, 17, 16, 7, 3, 16, 4, 5, 7, 7, 13, 13, 15, 7, 13, 12, 14, 3, 10, 1, 17, 15, 16, 7, 3, 13, 6, 9, 12, 3, 15, 10, 6, 6, 11, 1, 13, 3, 2, 16, 15, 6, 14, 18, 5, 17, 9, 11, 13, 1, 18, 11, 13, 13, 15, 2, 2, 6, 18, 4, 9, 1, 5, 3, 11, 10, 19, 3, 19, 15, 11, 5, 2, 2, 2, 14, 11, 12, 7, 9, 6, 18, 16, 15, 5, 1, 8, 16, 19, 18, 14, 9, 16, 7, 18, 13, 1, 6, 1, 15, 10, 6, 4, 17, 6, 7, 18, 17, 1, 4, 9, 11, 5, 10, 1, 11, 16, 17, 16, 13, 10, 10, 2, 13, 8, 15, 6, 3, 9, 19, 5, 5, 1, 5, 5, 16, 5, 4, 18, 8, 12, 7, 11, 11, 19, 8, 4, 1, 7, 17, 5, 16, 16, 8, 4, 10, 1, 6, 14, 2, 19, 5, 19, 17, 12, 13, 1, 4, 17, 5, 2, 7, 7, 4, 6, 12, 5, 19, 16, 7, 13, 5, 8, 16, 1, 16, 17, 7, 10, 13, 10, 14, 12, 9, 5, 14, 12, 5, 18, 7, 18, 17, 2, 4, 1, 1, 12, 2, 1, 11, 8, 18, 14, 15, 6, 14, 12, 16, 2, 8, 6, 11, 11, 4, 17, 8, 13, 16, 10, 15, 19, 16, 11, 9, 11, 14, 14, 1, 15, 7, 3, 14, 3, 7, 12, 5, 3, 5, 1, 18, 1, 2, 5, 18, 3, 1, 12, 6, 18, 5, 14, 10, 10, 2, 19, 10, 8, 10, 1, 5, 17, 17, 7, 3, 17, 10, 5, 2, 14, 1, 6, 1, 10, 14, 9, 2, 16, 8, 1, 11, 8, 14, 5, 14, 2, 14, 15, 11, 2, 4, 1, 12, 8, 18, 4, 11, 3, 14, 8, 11, 10, 1, 5, 16, 16, 6, 16, 10, 3, 2, 14, 1, 8, 3, 6, 1, 18, 13, 19, 9, 15, 6, 12, 11, 15, 7, 18, 3, 7, 4, 3, 19, 1, 17, 11, 11, 13, 17, 3, 5, 17, 4, 11, 3, 2, 1, 17, 13, 15, 12, 11, 1, 12, 17, 8, 6, 13, 11, 2, 19, 4, 11, 4, 10, 1, 14, 5, 5, 7, 6, 13, 12, 17, 1, 10, 12, 1, 18, 1, 7, 18, 11, 13, 17, 12, 14, 15, 1, 1, 10, 6, 18, 3, 7, 9, 15, 19, 11, 19, 13, 17, 11, 13, 18, 4, 4, 7, 5, 4, 19, 12, 7, 16, 9, 7, 15, 15, 9, 16, 9, 11, 8, 9, 3, 4, 10, 9, 15, 5, 9, 8, 10, 17, 5, 10, 9, 7, 13, 7, 11, 8, 16, 11, 7, 1, 16, 16, 10, 10, 15, 15, 18, 5, 18, 18, 5, 9, 16, 9, 7, 8, 12, 1, 9, 1, 16, 10, 16, 2, 8, 6, 3, 19, 13, 6, 19, 19, 14, 1, 12, 15, 18, 17, 11, 18, 9, 6, 18, 1, 12, 11, 10, 5, 12, 15, 14, 18, 11, 8, 1, 7, 1, 19, 6, 16, 6, 16, 14, 3, 14, 11, 13, 2, 11, 17, 16, 10, 16, 19, 2, 18, 14, 15, 1, 13, 7, 17, 11, 17, 3, 15, 5, 7, 14, 15, 7, 1, 15, 8, 12, 15, 2, 7, 12, 12, 11, 17, 12, 1, 15, 14, 16, 14, 9, 15, 15, 17, 4, 16, 15, 5, 4, 8, 4, 10, 8, 16, 5, 6, 19, 8, 12, 9, 1, 6, 3, 12, 14, 9, 13, 17, 6, 19, 4, 15, 18, 2, 18, 10, 5, 11, 13, 7, 12, 18, 1, 15, 14, 4, 4, 8, 8, 10, 6, 16, 4, 18, 3, 4, 15, 17, 11, 5, 13, 14, 3, 10, 12, 11, 9, 16, 17, 16, 7, 3, 16, 4, 5, 7, 7, 13, 13, 15, 7, 13, 12, 14, 3, 10, 1, 17, 15, 16, 7, 3, 13, 6, 9, 12, 3, 15, 10, 6, 6, 11, 1, 13, 3, 2, 16, 15, 6, 14, 18, 5, 17, 9, 11, 13, 1, 18, 11, 13, 13, 15, 2, 2, 6, 18, 4, 9, 1, 5, 3, 11, 10, 19, 3, 19, 15, 11, 5, 2, 2, 2, 14, 11, 12, 7, 9, 6, 18, 16, 15, 5, 1, 8, 16, 19, 18, 14, 9, 16, 7, 18, 13, 1, 6, 1, 15, 10, 6, 4, 17, 6, 7, 18, 17, 1, 4, 9, 11, 5, 10, 1, 11, 16, 17, 16, 13, 10, 10, 2, 13, 8, 15, 6, 3, 9, 19, 5, 5, 1, 5, 5, 16, 5, 4, 18, 8, 12, 7, 11, 11, 19, 8, 4, 1, 7, 17, 5, 16, 16, 8, 4, 10, 1, 6, 14, 2, 19, 5, 19, 17, 12, 13, 1, 4, 17, 5, 2, 7, 7, 4, 6, 12, 5, 19, 16, 7, 13, 5, 8, 16, 1, 16, 17, 7, 10, 13, 10, 14, 12, 9, 5, 14, 12, 5, 18, 7, 18, 17, 2, 4, 1, 1, 12, 2, 1, 11, 8, 18, 14, 15, 6, 14, 12, 16, 2, 8, 6, 11, 11, 4, 17, 8, 13, 16, 10, 15, 19, 16, 11, 9, 11, 14, 14, 1, 15, 7, 3, 14, 3, 7, 12, 5, 3, 5, 1, 18, 1, 2, 5, 18, 3, 1, 12, 6, 18, 5, 14, 10, 10, 2, 19, 10, 8, 10, 1, 5, 17, 17, 7, 3, 17, 10, 5, 2, 14, 1, 6, 1, 10, 14, 9, 2, 16, 8, 1, 11, 8, 14, 5, 14, 2, 14, 15, 11, 2, 4, 1, 12, 8, 18, 4, 11, 3, 14, 8, 11, 10, 1, 5, 16, 16, 6, 16, 10, 3, 2, 14, 1, 8, 3, 6, 1, 18, 13, 19, 9, 15, 6, 12, 11, 15, 7, 18, 3, 7, 4, 3, 19, 1, 17, 11, 11, 13, 17, 3, 5, 17, 4, 11, 3, 2, 1, 17, 13, 15, 12, 11, 1, 12, 17, 8, 6, 13, 11, 2, 19, 4, 11, 4, 10, 1, 14, 5, 5, 7, 6, 13, 12, 17, 1, 10, 12, 1, 18, 1, 7, 18, 11, 13, 17, 12, 14, 15, 1, 1];
start = 1;
end= 510;
tasks = 4;
task = array2d(1..tasks, 1..nodes, [0, 0, 0, 0, 0, 0, 0, 0, 0, 0, 0, 0, 0, 0, 0, 0, 0, 0, 0, 0, 0, 0, 0, 0, 0, 0, 0, 0, 0, 0, 0, 0, 0, 0, 0, 0, 0, 0, 0, 0, 0, 0, 0, 0, 0, 0, 0, 0, 0, 0, 0, 0, 0, 0, 0, 0, 0, 0, 0, 0, 0, 0, 0, 0, 0, 0, 0, 0, 0, 0, 0, 0, 0, 0, 0, 0, 0, 0, 0, 0, 0, 0, 0, 0, 0, 0, 0, 0, 0, 0, 0, 0, 0, 0, 0, 0, 0, 1, 0, 0, 0, 0, 0, 0, 0, 0, 0, 0, 0, 0, 0, 0, 0, 0, 0, 0, 0, 0, 0, 0, 0, 0, 0, 0, 0, 0, 0, 0, 0, 0, 0, 0, 0, 0, 0, 0, 0, 0, 0, 0, 0, 0, 0, 0, 0, 0, 0, 0, 0, 0, 0, 0, 0, 0, 0, 0, 0, 0, 0, 0, 0, 0, 0, 0, 0, 0, 0, 0, 0, 0, 0, 0, 0, 0, 0, 0, 0, 0, 0, 0, 0, 0, 0, 0, 0, 0, 0, 0, 0, 0, 0, 0, 0, 0, 0, 0, 0, 0, 0, 0, 0, 0, 0, 0, 0, 0, 0, 0, 0, 0, 0, 0, 0, 0, 0, 0, 0, 0, 0, 0, 0, 0, 0, 0, 0, 0, 0, 0, 0, 0, 0, 0, 0, 0, 0, 0, 0, 0, 0, 0, 0, 0, 0, 0, 0, 0, 0, 0, 0, 0, 0, 0, 0, 0, 0, 0, 0, 0, 0, 0, 0, 0, 0, 0, 0, 0, 0, 0, 0, 0, 0, 0, 0, 0, 0, 0, 0, 0, 0, 0, 0, 0, 0, 0, 0, 0, 0, 0, 0, 0, 0, 0, 0, 0, 0, 0, 0, 0, 0, 0, 0, 0, 0, 0, 0, 0, 0, 0, 0, 0, 0, 0, 0, 0, 0, 0, 0, 0, 0, 0, 0, 0, 0, 0, 0, 0, 0, 0, 0, 0, 0, 0, 0, 0, 0, 0, 0, 0, 0, 0, 0, 0, 0, 0, 0, 0, 0, 0, 0, 0, 0, 0, 0, 0, 0, 0, 0, 0, 0, 0, 0, 0, 0, 0, 0, 0, 0, 0, 0, 0, 0, 0, 0, 0, 0, 0, 0, 0, 0, 0, 0, 0, 0, 0, 0, 0, 0, 0, 0, 0, 0, 0, 0, 0, 0, 0, 0, 0, 0, 0, 0, 0, 0, 0, 0, 0, 0, 0, 0, 0, 0, 0, 0, 0, 0, 0, 0, 0, 0, 0, 0, 0, 0, 0, 0, 0, 0, 0, 0, 0, 0, 0, 0, 0, 0, 0, 0, 0, 0, 0, 0, 1, 0, 0, 0, 0, 0, 0, 0, 0, 0, 0, 0, 0, 0, 0, 0, 0, 0, 0, 0, 0, 0, 0, 0, 0, 0, 0, 0, 0, 0, 0, 0, 0, 0, 0, 0, 0, 0, 0, 0, 0, 0, 0, 0, 0, 0, 0, 0, 0, 0, 0, 0, 0, 0, 0, 0, 0, 0, 0, 0, 0, 0, 0, 0, 0, 0, 0, 0, 0, 0, 0, 0, 0, 0, 0, 0, 0, 0, 0, 0, 0, 0, 0, 0, 0, 0, 0, 0, 0, 0, 0, 0, 0, 0, 0, 0, 0, 0, 0, 0, 0, 0, 0, 0, 0, 0, 0, 0, 0, 0, 0, 0, 0, 0, 0, 0, 0, 0, 0, 0, 0, 0, 0, 0, 0, 0, 0, 0, 0, 0, 0, 0, 0, 0, 0, 0, 0, 0, 0, 0, 0, 0, 0, 0, 0, 0, 0, 0, 0, 0, 0, 0, 0, 0, 0, 0, 0, 0, 0, 0, 0, 0, 0, 0, 0, 0, 0, 1, 0, 0, 0, 0, 0, 0, 0, 0, 0, 0, 0, 0, 0, 0, 0, 0, 0, 0, 0, 0, 0, 0, 0, 0, 0, 0, 0, 0, 0, 0, 0, 0, 0, 0, 0, 0, 0, 0, 0, 0, 0, 0, 0, 0, 0, 0, 0, 0, 0, 0, 0, 0, 0, 0, 0, 0, 0, 0, 0, 0, 0, 0, 0, 0, 0, 0, 0, 0, 0, 0, 0, 0, 0, 0, 0, 0, 0, 0, 0, 0, 0, 0, 0, 0, 0, 0, 0, 0, 0, 0, 0, 0, 0, 0, 0, 0, 0, 0, 0, 0, 0, 0, 0, 0, 0, 0, 0, 0, 0, 0, 0, 0, 0, 0, 0, 0, 0, 0, 0, 0, 0, 0, 0, 0, 0, 0, 0, 0, 0, 0, 0, 0, 0, 0, 0, 0, 0, 0, 0, 0, 0, 0, 0, 0, 0, 0, 0, 0, 0, 0, 0, 0, 0, 0, 0, 0, 0, 0, 0, 0, 0, 0, 0, 0, 0, 0, 0, 0, 0, 0, 0, 0, 0, 0, 0, 0, 0, 0, 0, 0, 0, 0, 0, 0, 0, 0, 0, 0, 0, 0, 0, 0, 0, 0, 0, 0, 0, 0, 0, 0, 0, 0, 0, 0, 0, 0, 0, 0, 0, 0, 0, 0, 0, 0, 0, 0, 0, 0, 0, 0, 0, 0, 0, 0, 0, 0, 0, 0, 0, 0, 0, 0, 0, 0, 0, 0, 0, 0, 0, 0, 0, 0, 0, 0, 0, 0, 0, 0, 0, 0, 0, 0, 0, 0, 0, 0, 0, 0, 0, 0, 0, 0, 0, 0, 0, 0, 0, 0, 0, 0, 0, 0, 0, 0, 0, 0, 0, 0, 0, 0, 0, 0, 0, 0, 0, 0, 0, 0, 0, 0, 0, 0, 0, 0, 0, 0, 0, 0, 0, 0, 0, 0, 0, 0, 0, 0, 0, 0, 0, 0, 0, 0, 0, 0, 0, 0, 0, 0, 0, 0, 0, 0, 0, 0, 0, 0, 0, 0, 0, 0, 0, 0, 0, 0, 0, 0, 0, 0, 0, 0, 1, 0, 0, 0, 0, 0, 0, 0, 0, 0, 0, 0, 0, 0, 0, 0, 0, 0, 0, 0, 0, 0, 0, 0, 0, 0, 0, 0, 0, 0, 0, 0, 0, 0, 0, 0, 0, 0, 0, 0, 0, 0, 0, 0, 0, 0, 0, 0, 0, 0, 0, 0, 0, 0, 0, 0, 0, 0, 0, 0, 0, 0, 0, 0, 0, 0, 0, 0, 0, 0, 0, 0, 0, 0, 0, 0, 0, 0, 0, 0, 0, 0, 0, 0, 0, 0, 0, 0, 0, 0, 0, 0, 0, 0, 0, 0, 0, 0, 0, 0, 0, 0, 0, 0, 0, 0, 0, 0, 0, 0, 0, 0, 0, 0, 0, 0, 0, 0, 0, 0, 0, 0, 0, 0, 0, 0, 0, 0, 0, 0, 0, 0, 0, 0, 0, 0, 0, 0, 0, 0, 0, 0, 0, 0, 0, 0, 0, 0, 0, 0, 0, 0, 0, 0, 0, 0, 0, 0, 0, 0, 0, 0, 0, 0, 0, 0, 0, 0, 0, 0, 0, 0, 0, 1, 0, 0, 0, 0, 0, 0, 0, 0, 0, 0, 0, 0, 0, 0, 0, 0, 0, 0, 0, 0, 0, 0, 0, 0, 0, 0, 0, 0, 0, 0, 0, 0, 0, 0, 0, 0, 0, 0, 0, 0, 0, 0, 0, 0, 0, 0, 0, 0, 0, 0, 0, 0, 0, 0, 0, 0, 0, 0, 0, 0, 0, 0, 0, 0, 0, 0, 0, 0, 0, 0, 0, 0, 0, 0, 0, 0, 0, 0, 0, 0, 0, 0, 0, 0, 0, 0, 0, 0, 0, 0, 0, 0, 0, 0, 0, 0, 0, 0, 0, 0, 0, 0, 0, 0, 0, 0, 0, 0, 0, 0, 0, 0, 0, 0, 0, 0, 0, 0, 0, 0, 0, 0, 0, 0, 0, 0, 0, 0, 0, 0, 0, 0, 0, 0, 0, 0, 0, 0, 0, 0, 0, 0, 0, 0, 0, 0, 0, 0, 0, 0, 0, 0, 0, 0, 0, 0, 0, 0, 0, 0, 0, 0, 0, 0, 0, 0, 0, 0, 0, 0, 0, 0, 0, 0, 0, 0, 0, 0, 0, 0, 0, 0, 0, 0, 0, 0, 0, 0, 0, 0, 0, 0, 0, 0, 0, 0, 0, 0, 0, 0, 0, 0, 0, 0, 0, 0, 0, 0, 0, 0, 0, 0, 0, 0, 0, 0, 0, 0, 0, 0, 0, 0, 0, 0, 0, 0, 0, 0, 0, 0, 0, 0, 0, 0, 0, 0, 0, 0, 0, 0, 0, 0, 0, 0, 0, 0, 0, 0, 0, 0, 0, 0, 0, 0, 0, 0, 0, 0, 0, 0, 0, 0, 0, 0, 0, 0, 0, 0, 0, 0, 0, 0, 0, 0, 0, 0, 0, 0, 0, 0, 0, 0, 0, 0, 0, 0, 0, 0, 0, 0, 0, 0, 0, 0, 0, 0, 0, 0, 0, 0, 0, 0, 0, 0, 0, 0, 0, 0, 0, 0, 0, 0, 0, 0, 0, 0, 0, 0, 0, 0, 0, 0, 0, 0, 0, 0, 0, 0, 0, 0, 0, 0, 0, 0, 0, 0, 0, 1, 0, 0, 0, 0, 0, 0, 0, 0, 0, 0, 0, 0, 0, 0, 0, 0, 0, 0, 0, 0, 0, 0, 0, 0, 0, 0, 0, 0, 0, 0, 0, 0, 0, 0, 0, 0, 0, 0, 0, 0, 0, 0, 0, 0, 0, 0, 0, 0, 0, 0, 0, 0, 0, 0, 0, 0, 0, 0, 0, 0, 0, 0, 0, 0, 0, 0, 0, 0, 0, 0, 0, 0, 0, 0, 0, 0, 0, 0, 0, 0, 0, 0, 0, 0, 0, 0, 0, 0, 0, 0, 0, 0, 0, 0, 0, 0, 0, 0, 0, 0, 0, 0, 0, 0, 0, 0, 0, 0, 0, 0, 0, 0, 0, 0, 0, 0, 0, 0, 0, 0, 0, 0, 0, 0, 0, 0, 0, 0, 0, 0, 0, 0, 0, 0, 0, 0, 0, 0, 0, 0, 0, 0, 0, 0, 0, 0, 0, 0, 0, 0, 0, 0, 0, 0, 0, 0, 0, 0, 0, 0, 0, 0, 0, 0, 0, 0, 0, 0, 0, 0, 0, 0, 1, 0, 0, 0, 0, 0, 0, 0, 0, 0, 0, 0, 0, 0, 0, 0, 0, 0, 0, 0, 0, 0, 0, 0, 0, 0, 0, 0, 0, 0, 0, 0, 0, 0, 0, 0, 0, 0, 0, 0, 0, 0, 0, 0, 0, 0, 0, 0, 0, 0, 0, 0, 0, 0, 0, 0, 0, 0, 0, 0, 0, 0, 0, 0, 0, 0, 0, 0, 0, 0, 0, 0, 0, 0, 0, 0, 0, 0, 0, 0, 0, 0, 0, 0, 0, 0, 0, 0, 0, 0, 0, 0, 0, 0, 0, 0, 0, 0, 0, 0, 0, 0, 0, 0, 0, 0, 0, 0, 0, 0, 0, 0, 0, 0, 0, 0, 0, 0, 0, 0, 0, 0, 0, 0, 0, 0, 0, 0, 0, 0, 0, 0, 0, 0, 0, 0, 0, 0, 0, 0, 0, 0, 0, 0, 0, 0, 0, 0, 0, 0, 0, 0, 0, 0, 0, 0, 0, 0, 0, 0, 0, 0, 0, 0, 0, 0, 0, 0, 1, 0, 0, 0, 0, 0, 0, 0, 0, 0, 0, 0, 0, 0, 0, 0, 0, 0, 0, 0, 0, 0, 0, 0, 0, 0, 0, 0, 0, 0, 0, 0, 0, 0, 0, 0, 0, 0, 0, 0, 0, 0, 0, 0, 0, 0, 0, 0, 0, 0, 0, 0, 0, 0, 0, 0, 0, 0, 0, 0, 0, 0, 0, 0, 0, 0, 0, 0, 0, 0, 0, 0, 0, 0, 0, 0, 0, 0, 0, 0, 0, 0, 0, 0, 0, 0, 0, 0, 0, 0, 0, 0, 0, 0, 0, 0, 0, 0, 0, 0, 0, 0, 0, 0, 0, 0, 0, 0, 0, 0, 0, 0, 0, 0, 0, 0, 0, 0, 0, 0, 0, 0, 0, 0, 0, 0, 0, 0, 0, 0, 0, 0, 0, 0, 0, 0, 0, 0, 0, 0, 0, 0, 0, 0, 0, 0, 0, 0, 0, 0, 0, 0, 0, 0, 0, 0, 0, 0, 0, 0, 0, 0, 0, 0, 0, 0, 0, 0, 0, 0, 0, 0, 0, 0, 0, 0, 0, 0, 0, 0, 0, 0, 0, 0, 0, 0, 0, 0, 0, 0, 0, 0, 0, 0, 0, 0, 0, 0, 0, 0, 0, 0, 0, 0, 0, 0, 0, 0, 0, 0, 0, 0, 0, 0, 0, 0, 0, 0, 0, 0, 0, 0, 0, 0, 0, 0, 0, 0, 0, 0, 0, 0, 0, 0, 0, 0, 0, 0, 0]);
