graph_generation/data/sat/tcsp/hexagonal_lattice_N_15_task_along_shortest_path.txt
510 630 1 510 4
1 32 10
2 3 6
3 4 18
3 34 3
4 5 7
5 6 9
5 36 15
6 7 19
7 8 11
7 38 19
8 9 13
9 10 17
10 11 11
11 12 13
12 13 18
13 14 4
13 44 4
14 15 7
15 46 5
16 17 4
17 18 19
17 48 12
18 19 7
19 20 16
19 50 9
20 21 7
21 22 15
21 52 15
22 23 9
23 24 16
23 54 9
24 25 11
25 26 8
25 56 9
26 27 3
27 58 4
28 29 10
29 30 9
29 60 15
30 31 5
32 33 9
33 34 8
33 65 10
35 36 17
35 67 5
36 37 10
37 38 9
37 69 7
38 39 13
39 40 7
40 41 11
41 42 8
41 73 16
42 43 11
43 44 7
44 45 1
45 46 16
45 77 16
46 47 10
47 48 10
47 79 15
48 49 15
49 50 18
49 81 5
50 51 18
51 52 18
52 53 5
53 85 9
54 55 16
55 87 9
56 57 7
57 58 8
57 89 12
58 59 1
59 60 9
60 61 1
61 62 16
61 93 10
62 63 16
63 95 2
64 65 8
64 96 6
65 66 3
66 98 19
67 68 13
68 69 6
68 100 19
69 70 19
70 71 14
70 102 1
72 73 12
72 104 15
73 74 18
74 75 17
74 106 11
75 76 18
76 77 9
76 108 6
77 78 18
78 79 1
78 110 12
79 80 11
80 81 10
80 112 5
81 82 12
82 114 15
83 84 14
84 85 18
84 116 11
85 86 8
86 87 1
87 88 7
88 89 1
88 120 19
89 90 6
90 91 16
90 122 6
91 92 16
92 93 14
92 124 3
94 126 14
96 97 11
97 98 13
97 129 2
98 99 11
99 100 17
99 131 16
100 101 10
101 102 16
101 133 19
102 103 2
103 104 18
103 135 14
104 105 15
105 106 1
105 137 13
106 107 7
107 139 17
108 109 11
109 141 17
110 111 3
111 112 15
112 113 5
113 114 7
113 145 14
114 115 15
115 116 7
115 147 1
116 117 15
117 118 8
117 149 12
118 119 15
119 120 2
119 151 7
121 153 12
123 124 12
123 155 11
124 125 17
125 126 12
125 157 1
126 127 15
127 159 14
128 129 16
128 160 14
130 162 9
131 132 15
132 133 15
132 164 17
133 134 4
134 135 16
134 166 15
135 136 5
136 137 4
137 138 8
138 139 4
138 170 10
139 140 8
140 141 16
140 172 5
142 143 6
142 174 19
143 144 8
144 145 12
144 176 9
146 147 1
146 178 6
147 148 3
148 149 12
148 180 14
149 150 9
150 182 13
151 152 17
152 153 6
152 184 19
153 154 4
154 155 15
154 186 18
155 156 2
156 157 18
156 188 10
157 158 5
158 159 11
158 190 13
160 161 7
162 163 12
163 164 18
164 165 1
165 166 15
165 197 14
166 167 4
167 168 4
167 199 8
168 169 8
169 201 10
170 171 6
171 172 16
171 203 4
172 173 18
174 175 3
175 207 4
176 177 15
177 178 17
178 179 11
179 180 5
179 211 13
180 181 14
181 213 3
182 183 10
183 184 12
183 215 11
185 186 9
185 217 16
186 187 17
187 188 16
187 219 7
188 189 3
189 190 16
189 221 4
190 191 5
191 223 7
192 193 7
192 224 13
193 194 13
194 195 15
194 226 7
195 196 13
196 197 12
196 228 14
197 198 3
198 199 10
198 230 1
199 200 17
200 201 15
201 202 16
202 203 7
202 234 3
203 204 13
204 205 6
204 236 9
206 207 12
206 238 3
207 208 15
208 209 10
209 210 6
210 211 6
210 242 11
211 212 1
212 244 13
213 214 3
214 215 2
215 216 16
216 217 15
216 248 6
217 218 14
218 250 18
219 220 5
220 221 17
220 252 9
222 223 11
222 254 13
224 225 1
225 226 18
225 257 11
226 227 13
227 228 13
227 259 15
228 229 2
229 230 2
229 261 6
231 232 18
231 263 4
232 233 9
233 234 1
233 265 5
235 236 3
235 267 11
236 237 10
237 238 19
239 240 3
240 241 19
241 242 15
242 243 11
243 244 5
244 245 2
245 246 2
245 277 2
246 247 14
247 248 11
247 279 12
248 249 7
249 250 9
249 281 6
250 251 18
251 252 16
251 283 15
252 253 5
253 254 1
253 285 8
254 255 16
255 287 19
256 257 18
256 288 14
257 258 9
258 290 16
260 261 7
260 292 18
261 262 13
262 263 1
262 294 6
264 265 1
264 296 15
265 266 10
266 267 6
266 298 4
267 268 17
268 269 6
268 300 7
269 270 18
270 271 17
270 302 1
271 272 4
272 273 9
272 304 11
273 274 5
274 275 10
274 306 1
275 276 11
276 277 16
276 308 17
277 278 16
278 279 13
279 280 10
280 281 10
280 312 2
281 282 13
282 283 8
283 284 15
284 285 6
284 316 3
285 286 9
286 287 19
286 318 5
288 289 5
289 290 1
289 321 5
290 291 5
291 323 16
292 293 5
293 294 4
293 325 18
294 295 8
295 296 12
295 327 7
296 297 11
297 298 11
297 329 19
298 299 8
299 300 4
300 301 1
301 302 7
301 333 17
302 303 5
303 304 16
303 335 16
304 305 8
305 306 4
305 337 10
307 308 1
307 339 6
308 309 14
309 310 2
309 341 19
310 311 5
311 312 19
311 343 17
312 313 12
313 314 13
314 315 1
315 316 4
315 347 17
316 317 5
317 318 2
317 349 7
318 319 7
319 351 4
320 321 6
320 352 12
322 323 5
322 354 19
323 324 16
324 325 7
324 356 13
325 326 5
326 327 8
326 358 16
327 328 1
328 329 16
328 360 17
329 330 7
330 362 10
331 332 13
332 333 10
332 364 14
333 334 12
334 335 9
334 366 5
335 336 14
336 337 12
336 368 5
337 338 18
338 370 7
339 340 18
340 341 17
342 343 2
342 374 4
343 344 1
344 345 1
344 376 12
345 346 2
346 347 1
346 378 11
347 348 8
348 349 18
349 350 14
350 382 15
353 354 6
353 385 14
354 355 12
355 356 16
356 357 2
357 358 8
357 389 6
359 360 11
361 362 11
361 393 4
362 363 17
363 364 8
364 365 13
365 366 16
366 367 10
367 368 15
367 399 19
369 370 16
370 371 11
371 403 9
372 373 11
373 374 14
375 376 14
375 407 1
376 377 15
377 378 7
379 380 3
379 411 14
380 381 3
381 382 7
381 413 12
382 383 5
384 385 3
384 416 5
385 386 1
386 387 18
386 418 1
387 388 2
388 389 5
388 420 18
389 390 3
390 391 1
390 422 12
391 392 6
392 393 18
392 424 5
393 394 14
394 395 10
394 426 10
395 396 2
396 428 19
397 398 10
398 399 8
398 430 10
399 400 1
400 432 5
401 402 17
402 403 17
403 404 7
404 405 3
404 436 17
405 406 10
406 438 5
408 409 2
408 440 14
409 410 1
410 411 6
410 442 1
411 412 10
412 413 14
412 444 9
413 414 2
414 415 16
414 446 8
416 417 1
417 418 11
417 449 8
418 419 14
419 420 5
419 451 14
420 421 2
421 422 14
422 423 15
423 424 11
423 455 2
424 425 4
425 426 1
425 457 12
426 427 8
427 428 18
427 459 4
428 429 11
429 461 3
430 431 14
431 432 8
431 463 11
432 433 10
433 434 1
433 465 5
434 435 16
435 436 16
435 467 6
436 437 16
437 438 10
438 439 3
439 440 2
440 441 14
441 442 1
441 473 8
442 443 3
443 475 6
444 445 1
445 477 18
446 447 13
447 479 19
448 449 9
448 480 15
449 450 6
450 451 12
450 482 11
451 452 15
452 484 7
453 454 18
454 455 3
454 486 7
455 456 4
456 457 3
456 488 19
457 458 1
458 459 17
458 490 11
459 460 11
460 461 13
460 492 17
462 463 3
462 494 5
463 464 17
464 465 4
465 466 11
466 467 3
466 498 2
467 468 1
468 469 17
468 500 13
469 470 15
470 502 12
471 472 11
472 473 1
472 504 12
474 475 17
474 506 8
475 476 6
476 477 13
476 508 11
477 478 2
478 510 19
480 481 4
481 482 11
482 483 4
483 484 10
484 485 1
485 486 14
486 487 5
487 488 5
488 489 7
489 490 6
491 492 13
492 493 12
493 494 17
494 495 1
495 496 10
496 497 12
497 498 1
498 499 18
499 500 1
500 501 7
501 502 18
502 503 11
503 504 13
504 505 17
505 506 12
506 507 14
507 508 15
508 509 1
509 510 1
98 442
99 440
103 441
104 272
